Route 1: 20 24 27 25 29 30 28 26 23 22 21 47
Route 2: 67 63 65 62 74 72 61 64 68 66 69
Route 3: 3 5 7 8 10 11 9 6 4 2 1 75
Route 4: 43 42 40 41 44 45 46 48 51 50 52 49
Route 5: 90 87 86 83 82 84 85 88 89 91
Route 6: 98 96 95 94 92 93 97 100 99
Route 7: 32 33 31 35 37 38 39 36 34
Route 8: 18 17 13 19 15 16 14 12
Route 9: 57 55 54 53 56 58 60 59
Route 10: 76 78 81 71 70 73 77 79 80
Vehicles: 10
Distance: 878.52
